units real
atom_style full

dimension 3
boundary p p p

bond_style       hybrid harmonic
angle_style      hybrid harmonic charmm
dihedral_style   hybrid charmm multi/harmonic
improper_style   hybrid harmonic
special_bonds    lj 0.0 0.0 1.0 coul 0.0 0.0 1.0

read_data        Multiple-Res-Protein-in-Water.lmp
#read_restart    restart.Mult-Res-T300.50000

######################################################################

variable         root index Mult-Res-T300
variable         Nrun equal 500000   #500 ps
variable         Nf equal 100
variable         Ne equal 100
variable         Nr equal ${Nf}/${Ne}
variable         Ndump equal 10000
variable         Nrestart equal 10000
variable         Text equal 300.0
variable         Pext equal 10.0

######################################################################

pair_style       lj/cut/coul/dsf 0.2 10.0 12.0
pair_modify      tail yes

pair_coeff 1 1   0.0588497   5.1605089
pair_coeff 2 2   0.0426419   4.4858539
pair_coeff 3 3   0.0432895   4.3779577
pair_coeff 4 4   0.0459492   4.3070827
pair_coeff 5 5   0.0515221   4.0627974
pair_coeff 6 6   0.0511680   4.0689728
pair_coeff 7 7   0.0603565   3.4985693
pair_coeff 8 8   0.0475102   3.8550526
pair_coeff 9 9   0.0497126   3.4301289
pair_coeff 10 10   0.0515221   4.0359593
pair_coeff 11 11   0.0426419   4.6736830
pair_coeff 12 12   0.0592490   5.1087301
pair_coeff 13 13   0.0423371   5.7970450
pair_coeff 14 14   0.0575379   3.7692815
pair_coeff 15 15   0.0463428   4.1435827
pair_coeff 16 16   0.0657845   3.0004598
pair_coeff 17 17   0.0589539   4.2818484
pair_coeff 18 18   0.0488943   4.6007625
pair_coeff 19 19   0.0465282   3.9641468
pair_coeff 20 20   0.0515221   3.9496964
pair_coeff 21 21   0.0414339   4.7751676
pair_coeff 22 22   0.0578525   4.5936880
pair_coeff 23 23   0.0679652   3.5155000
pair_coeff 24 24   0.0531184   4.5586118
pair_coeff 25 25   0.0497126   3.2870078
pair_coeff 26 26   0.0590057   5.0987934
pair_coeff 27 27   0.0506883   5.5454681
pair_coeff 28 28   0.0657845   2.9944602
pair_coeff 29 29   0.0420012   4.6817610
pair_coeff 30 30   0.0603565   3.5032217
pair_coeff 31 31   0.0490613   5.4403429
pair_coeff 32 32   0.0603565   3.4947460
pair_coeff 33 33   0.0657845   2.9909523
pair_coeff 34 34   0.0527495   5.2973487
pair_coeff 35 35   0.0603565   3.5156265
pair_coeff 36 36   0.0620190   5.3299883
pair_coeff 37 37   0.0440256   4.4280735
pair_coeff 38 38   0.0522410   4.1352266
pair_coeff 39 39   0.0610040   4.8180389
pair_coeff 40 40   0.0571722   4.2358610
pair_coeff 41 41   0.0507925   4.9560851
pair_coeff 42 42   0.0560357   4.2373264
pair_coeff 43 43   0.0474759   4.8814674
pair_coeff 44 44   0.0487489   3.6939118
pair_coeff 45 45   0.0629076   4.6682137
pair_coeff 46 46   0.0590045   5.0233845
pair_coeff 47 47   0.0554551   5.4971116
pair_coeff 48 48   0.0487489   3.7092840
pair_coeff 49 49   0.0535982   4.4574034
pair_coeff 50 50   0.0500877   4.5499949
pair_coeff 51 51   0.0426419   4.6382899
pair_coeff 52 52   0.0474943   4.1873929
pair_coeff 53 53   0.0527445   4.7387061
pair_coeff 54 54   0.0426419   4.5451427
pair_coeff 55 55   0.0493630   4.1498589
pair_coeff 56 56   0.0614112   4.9802859
pair_coeff 57 57   0.0539497   5.4565444
pair_coeff 58 58   0.0474943   4.3044416
pair_coeff 59 59   0.0600474   5.4414707
pair_coeff 60 60   0.0523729   4.1328587
pair_coeff 61 61   0.0657845   3.0275982
pair_coeff 62 62   0.0530260   5.9459852
pair_coeff 63 63   0.0533512   5.0249433
pair_coeff 64 64   0.0465282   3.8532656
pair_coeff 65 65   0.0490936   4.1217416
pair_coeff 66 66   0.0521336   5.2147815
pair_coeff 67 67   0.0523729   4.4375861
pair_coeff 68 68   0.0579942   3.5208442
pair_coeff 69 69   0.0603565   3.5112579
pair_coeff 70 70   0.0596346   3.3794961
pair_coeff 71 71   0.0586455   4.8031769
pair_coeff 72 72   0.0596346   3.3607998
pair_coeff 73 73   0.0602535   5.2948690
pair_coeff 74 74   0.0617484   4.9172562
pair_coeff 75 75   0.0562889   4.1156684
pair_coeff 76 76   0.0529376   5.2718174
pair_coeff 77 77   0.0440256   4.4466589
pair_coeff 78 78   0.0511342   4.5740680
pair_coeff 79 79   0.0426419   4.4964934
pair_coeff 80 80   0.0728220   5.9304256
pair_coeff 81 81   0.0603565   3.6516986
pair_coeff 82 82   0.0474943   4.3535183
pair_coeff 83 83   0.0625789   5.1439168
pair_coeff 84 84   0.0453958   4.4013877
pair_coeff 85 85   0.0614164   5.6770520
pair_coeff 86 86   0.0625155   5.6526527
pair_coeff 87 87   0.0529638   4.4695336
pair_coeff 88 88   0.0488016   4.5167522
pair_coeff 89 89   0.0422147   4.4340966
pair_coeff 90 90   0.0527445   4.8832362
pair_coeff 91 91   0.0584111   4.7266349
pair_coeff 92 92   0.0624714   4.7751027
pair_coeff 93 93   0.0448653   5.6081561
pair_coeff 94 94   0.0566494   4.5079087
pair_coeff 95 95   0.0495369   5.1059257
pair_coeff 96 96   0.0648274   5.1705762
pair_coeff 97 97   0.0599114   4.0073027
pair_coeff 98 98   0.0426419   4.4971121
pair_coeff 99 99   0.0475102   3.7398628
pair_coeff 100 100   0.0458579   4.9362729
pair_coeff 101 101   0.0563979   4.2684713
pair_coeff 102 102   0.0556129   4.7993030
pair_coeff 103 103   0.0657845   2.9008936
pair_coeff 104 104   0.0657845   2.9966648
pair_coeff 105 105   0.0686582   5.2998184
pair_coeff 106 106   0.0515221   3.9441145
pair_coeff 107 107   0.0509349   5.3664178
pair_coeff 108 108   0.0431255   4.0688763
pair_coeff 109 109   0.0572238   5.7968332
pair_coeff 110 110   0.0464437   4.4473648
pair_coeff 111 111   0.0540245   5.3169465
pair_coeff 112 112   0.0547904   4.4136455
pair_coeff 113 113   0.0579950   5.0358873
pair_coeff 114 114   0.0431255   3.9548499
pair_coeff 115 115   0.0497126   3.2636452
pair_coeff 116 116   0.0480250   3.6010081
pair_coeff 117 117   0.0487489   3.6362091
pair_coeff 118 118   0.0569409   3.9628466
pair_coeff 119 119   0.0470709   5.0500414
pair_coeff 120 120   0.0541726   4.9846902
pair_coeff 121 121   0.0425388   3.9864967
pair_coeff 122 122   0.0704522   4.7249749
pair_coeff 123 123   0.0418094   2.9529535
pair_coeff 124 124   0.1100000   3.5635949
pair_coeff 125 125   0.0549145   4.1607905
pair_coeff 126 126   0.0616438   3.8939461
pair_coeff 127 127   0.0383178   4.5375772
pair_coeff 128 128   0.1100000   3.5635949
pair_coeff 129 129   0.1200000   3.0290556
pair_coeff 130 130   0.0581439   3.8950402
pair_coeff 131 131   0.0313599   2.8301649
pair_coeff 132 132   0.1100000   3.5635949
pair_coeff 133 133   0.1200000   3.0290556
pair_coeff 134 134   0.0959166   1.0024969
pair_coeff 135 135   0.0436658   2.5372360
pair_coeff 136 136   0.1100000   3.5635949
pair_coeff 137 137   0.0410394   3.7677344
pair_coeff 138 138   0.0959166   1.0012992
pair_coeff 139 139   0.0510238   3.1385626
pair_coeff 140 140   0.1100000   3.5635949
pair_coeff 141 141   0.0557096   3.8071349
pair_coeff 142 142   0.0959166   0.9974467
pair_coeff 143 143   0.0494521   3.6796489
pair_coeff 144 144   0.0611555   2.7702347
pair_coeff 145 145   0.0742967   1.9767145
pair_coeff 146 146   0.0546572   3.7103609
pair_coeff 147 147   0.0389539   3.0576001
pair_coeff 148 148   0.1100000   3.5635949
pair_coeff 149 149   0.0742967   2.0956145
pair_coeff 150 150   0.0959166   1.0062306
pair_coeff 151 151   0.0364607   3.5421600
pair_coeff 152 152   0.1100000   3.5635949
pair_coeff 153 153   0.0557096   3.7634102
pair_coeff 154 154   0.0959166   0.9978978
pair_coeff 155 155   0.0359505   3.5862205
pair_coeff 156 156   0.1003984   1.7534981
pair_coeff 157 157   0.1200000   3.0290556
pair_coeff 158 158   0.0556132   3.1163350
pair_coeff 159 159   0.0657845   3.0485513
pair_coeff 160 160   0.0515221   4.2530863
pair_coeff 161 161   0.0503506   4.4854004
pair_coeff 162 162   0.0581072   4.6570923
pair_coeff 163 163   0.0434175   4.5827252
pair_coeff 164 164   0.0445459   5.2073260
pair_coeff 165 165   0.0679652   3.4710241
pair_coeff 166 166   0.0418987   4.7672280
pair_coeff 167 167   0.0440256   4.4485571
pair_coeff 168 168   0.0640778   4.2045682
pair_coeff 169 169   0.0626774   4.7652102
pair_coeff 170 170   0.0538147   4.1397432
pair_coeff 171 171   0.0532547   4.6443727
pair_coeff 172 172   0.0470704   5.6759640
pair_coeff 173 173   0.0607359   6.1730003
pair_coeff 174 174   0.0624282   4.6538012
pair_coeff 175 175   0.0420089   3.5679825
pair_coeff 176 176   0.0504652   5.8182696
pair_coeff 177 177   0.0416642   4.3710377
pair_coeff 178 178   0.0590045   4.8754355
pair_coeff 179 179   0.0610040   4.6505396
pair_coeff 180 180   0.0494991   4.4545612
pair_coeff 181 181   0.0431255   4.0524142
pair_coeff 182 182   0.0588154   3.3008551
pair_coeff 183 183   0.0624468   6.3378910
pair_coeff 184 184   0.0480250   4.2963455
pair_coeff 185 185   0.0426419   4.5735993
pair_coeff 186 186   0.0590045   4.6962139
pair_coeff 187 187   0.0603565   3.5326772
pair_coeff 188 188   0.0525787   3.9695209
pair_coeff 189 189   0.0640778   4.2864868
pair_coeff 190 190   0.0603565   3.5174418
pair_coeff 191 191   0.0553033   4.7439164
pair_coeff 192 192   0.0560357   4.1225388
pair_coeff 193 193   0.0603565   3.5910900
pair_coeff 194 194   0.0422147   4.4481658
pair_coeff 195 195   0.0515221   3.9892002
pair_coeff 196 196   0.0542160   5.8171594
pair_coeff 197 197   0.0552341   5.2989421
pair_coeff 198 198   0.0648951   3.9073407
pair_coeff 199 199   0.0603565   3.4333214
pair_coeff 200 200   0.0504652   5.3545025
pair_coeff 201 201   0.0673089   5.3223220
pair_coeff 202 202   0.0594722   4.7801519
pair_coeff 203 203   0.0515221   3.9833452
pair_coeff 204 204   0.0538147   4.2525479
pair_coeff 205 205   0.0578525   4.4924131
pair_coeff 206 206   0.0426720   5.8609164
pair_coeff 207 207   0.0568679   4.4026211
pair_coeff 208 208   0.0590057   4.0264097
pair_coeff 209 209   0.0496976   4.5621434
pair_coeff 210 210   0.0459439   4.6370246
pair_coeff 211 211   0.0515221   3.9381603
pair_coeff 212 212   0.0474943   4.3864598
pair_coeff 213 213   0.0603565   3.4790338
pair_coeff 214 214   0.0499920   4.2007297
pair_coeff 215 215   0.0497126   3.4039095
pair_coeff 216 216   0.0567517   5.4626981
pair_coeff 217 217   0.0781474   3.4453633
pair_coeff 218 218   0.0411589   4.1713101
pair_coeff 219 219   0.1003984   1.7112698
pair_coeff 220 220   0.0649475   5.4965731
pair_coeff 221 221   0.0574994   4.7311786
pair_coeff 222 222   0.0432767   4.6739668
pair_coeff 223 223   0.0920183   4.6932118
pair_coeff 224 224   0.0390170   3.9693934
pair_coeff 225 225   0.1100000   3.5635949
pair_coeff 226 226   0.0700556   4.5111563
pair_coeff 227 227   0.1033530   3.0304675
pair_coeff 228 228   0.0434745   4.6220078
pair_coeff 229 229   0.0611555   2.5402756
pair_coeff 230 230   0.1200000   3.0290556
pair_coeff 231 231   0.0717456   3.1943779
pair_coeff 232 232   0.0339701   3.2333413
pair_coeff 233 233   0.0513809   2.5426168
pair_coeff 234 234   0.0742967   1.9131649
pair_coeff 235 235   0.0651083   2.9077368
pair_coeff 236 236   0.0426703   3.4033883
pair_coeff 237 237   0.1003984   1.7337692
pair_coeff 238 238   0.0536656   3.5524217
pair_coeff 239 239   0.0421803   3.1646623
pair_coeff 240 240   0.0571400   4.1744950
pair_coeff 241 241   0.0589539   4.4651273
pair_coeff 242 242   0.0431255   4.0170410
pair_coeff 243 243   0.0468297   4.9935801
pair_coeff 244 244   0.0612121   4.1767342
pair_coeff 245 245   0.0553033   4.2640188
pair_coeff 246 246   0.0722006   4.0494645
pair_coeff 247 247   0.0456252   4.4854397
pair_coeff 248 248   0.0603565   3.5962745
pair_coeff 249 249   0.0575379   3.7578314
pair_coeff 250 250   0.0487489   3.7556874
pair_coeff 251 251   0.0431255   3.9807651
pair_coeff 252 252   0.0515221   4.0213951
pair_coeff 253 253   0.0474759   4.8383584
pair_coeff 254 254   0.0523118   3.2624054
pair_coeff 255 255   0.0796337   3.9989902
pair_coeff 256 256   0.0383680   2.6165499
pair_coeff 257 257   0.0877496   3.4319382
pair_coeff 258 258   0.1200000   3.0290556
pair_coeff 259 259   0.0651083   3.0915656
pair_coeff 260 260   0.0479901   3.6666101
pair_coeff 261 261   0.1148913   2.8402993
pair_coeff 262 262   0.1200000   3.0290556
pair_coeff 263 263   0.0959166   1.0012492
pair_coeff 264 264   0.0357562   4.6104165
pair_coeff 265 265   0.1100000   3.5635949
pair_coeff 266 266   0.0844174   4.0773214
pair_coeff 267 267   0.0750784   4.9648811
pair_coeff 268 268   0.0352778   1.4362606
pair_coeff 269 269   0.1100000   3.5635949
pair_coeff 270 270   0.1200000   3.0290556
pair_coeff 271 271   0.0678821   2.5301383
pair_coeff 272 272   0.0396219   3.0917855
pair_coeff 273 273   0.1100000   3.5635949
pair_coeff 274 274   0.1200000   3.0290556
pair_coeff 275 275   0.0959166   1.0033444
pair_coeff 276 276   0.0508648   2.7077235
pair_coeff 277 277   0.1002660   1.8750763
pair_coeff 278 278   0.0574782   5.1567492
pair_coeff 279 279   0.0472786   5.2441753
pair_coeff 280 280   0.0590045   4.9783590
pair_coeff 281 281   0.0459492   4.2075898
pair_coeff 282 282   0.0431255   4.0309432
pair_coeff 283 283   0.0556397   4.4256473
pair_coeff 284 284   0.0603565   3.5123734
pair_coeff 285 285   0.0657845   2.9361282
pair_coeff 286 286   0.0448438   3.9273288
pair_coeff 287 287   0.0589539   4.4189531
pair_coeff 288 288   0.0431255   4.0905493
pair_coeff 289 289   0.0520300   4.8671540
pair_coeff 290 290   0.0490973   5.3625738
pair_coeff 291 291   0.0502348   3.6157633
pair_coeff 292 292   0.0657845   3.0491297
pair_coeff 293 293   0.0465282   3.6829722
pair_coeff 294 294   0.0550606   4.8249809
pair_coeff 295 295   0.0427125   4.8585901
pair_coeff 296 296   0.0488943   4.8383512
pair_coeff 297 297   0.0431255   4.0160518
pair_coeff 298 298   0.0569128   5.0401711
pair_coeff 299 299   0.0679652   3.4571971
pair_coeff 300 300   0.0517106   5.3306158
pair_coeff 301 301   0.0475589   5.0830876
pair_coeff 302 302   0.0603565   3.4899288
pair_coeff 303 303   0.0657845   3.0314730
pair_coeff 304 304   0.0588468   5.0645010
pair_coeff 305 305   0.0496976   4.3263587
pair_coeff 306 306   0.0562889   4.1088065
pair_coeff 307 307   0.0515221   3.9497755
pair_coeff 308 308   0.0626774   4.5864818
pair_coeff 309 309   0.0541726   4.9685322
pair_coeff 310 310   0.0563707   4.9225034
pair_coeff 311 311   0.0551121   4.6494029
pair_coeff 312 312   0.0517586   4.7857730
pair_coeff 313 313   0.0657303   4.8313873
pair_coeff 314 314   0.0418418   5.1047733
pair_coeff 315 315   0.0526732   4.8370573
pair_coeff 316 316   0.0575394   4.7278795
pair_coeff 317 317   0.0534179   5.2267428
pair_coeff 318 318   0.0487489   3.7167830
pair_coeff 319 319   0.0657845   3.0372678
pair_coeff 320 320   0.0599299   4.6388229
pair_coeff 321 321   0.0643492   4.6354851
pair_coeff 322 322   0.0426419   4.5656623
pair_coeff 323 323   0.0572579   4.9930856
pair_coeff 324 324   0.0555044   4.9911342
pair_coeff 325 325   0.0524819   4.8267631
pair_coeff 326 326   0.0631734   4.8772628
pair_coeff 327 327   0.0549644   6.6028024
pair_coeff 328 328   0.0459492   4.0155121
pair_coeff 329 329   0.0608234   4.5621097
pair_coeff 330 330   0.0485472   3.9699016
pair_coeff 331 331   0.0603565   3.4803819
pair_coeff 332 332   0.0662483   4.7767827
pair_coeff 333 333   0.0657845   2.9596939
pair_coeff 334 334   0.0657845   3.0402578
pair_coeff 335 335   0.0501980   4.7562458
pair_coeff 336 336   0.0609165   4.4981909
pair_coeff 337 337   0.0526540   5.5111216
pair_coeff 338 338   0.0605325   4.9687101
pair_coeff 339 339   0.0586052   5.5664650
pair_coeff 340 340   0.0494941   5.5460818
pair_coeff 341 341   0.0544296   5.0899259
pair_coeff 342 342   0.0503989   4.0974410
pair_coeff 343 343   0.0640778   4.3018017
pair_coeff 344 344   0.0546204   4.4865814
pair_coeff 345 345   0.0431255   3.9397127
pair_coeff 346 346   0.0496976   4.5351259
pair_coeff 347 347   0.0440256   4.6434556
pair_coeff 348 348   0.0482564   4.9597257
pair_coeff 349 349   0.0499728   4.8148969
pair_coeff 350 350   0.0648951   3.8118088
pair_coeff 351 351   0.0569409   4.0268071
pair_coeff 352 352   0.0603565   3.5124468
pair_coeff 353 353   0.0498465   5.2631316
pair_coeff 354 354   0.0517413   4.9142825
pair_coeff 355 355   0.0561948   5.1809454
pair_coeff 356 356   0.0474817   3.8703791
pair_coeff 357 357   0.0539089   6.7037840
pair_coeff 358 358   0.0551121   4.4729917
pair_coeff 359 359   0.0589539   4.4338548
pair_coeff 360 360   0.0414339   4.6806194
pair_coeff 361 361   0.0504652   5.5907416
pair_coeff 362 362   0.0575379   3.9002350
pair_coeff 363 363   0.0530530   5.2673431
pair_coeff 364 364   0.0641802   5.2736061
pair_coeff 365 365   0.0527445   4.7920315
pair_coeff 366 366   0.0617819   4.5121134
pair_coeff 367 367   0.0643070   5.8738464
pair_coeff 368 368   0.0515221   3.8793572
pair_coeff 369 369   0.0512836   3.9297585
pair_coeff 370 370   0.0431255   4.0176540
pair_coeff 371 371   0.0509943   4.6275496
pair_coeff 372 372   0.0570145   5.4526430
pair_coeff 373 373   0.0636439   4.6835228
pair_coeff 374 374   0.0460108   4.6624142
pair_coeff 375 375   0.0531184   4.5881418
pair_coeff 376 376   0.0486856   4.4666949
pair_coeff 377 377   0.0626035   6.5034214
pair_coeff 378 378   0.0551173   6.0203214
pair_coeff 379 379   0.0560826   5.6569367
pair_coeff 380 380   0.0536142   5.7791362
pair_coeff 381 381   0.0709998   5.8434143
pair_coeff 382 382   0.0568431   5.9465483
pair_coeff 383 383   0.0542573   5.8648055
pair_coeff 384 384   0.0518548   5.6418685
pair_coeff 385 385   0.0579831   5.8062486
pair_coeff 386 386   0.0572063   4.9857268
pair_coeff 387 387   0.0619479   5.1097662
pair_coeff 388 388   0.0709179   3.4245237
pair_coeff 389 389   0.0553033   4.2300432
pair_coeff 390 390   0.0662972   3.7825975
pair_coeff 391 391   0.0515221   3.9249162
pair_coeff 392 392   0.0515221   3.9512935
pair_coeff 393 393   0.0422147   4.3620119
pair_coeff 394 394   0.0515221   4.0400015
pair_coeff 395 395   0.0431255   4.0751616
pair_coeff 396 396   0.0586455   4.7607798
pair_coeff 397 397   0.0560139   5.0167280
pair_coeff 398 398   0.0472231   4.3433949
pair_coeff 399 399   0.0590057   4.5297222
pair_coeff 400 400   0.0519734   3.6967288
pair_coeff 401 401   0.0514232   5.6139397
pair_coeff 402 402   0.0573305   4.1866478
pair_coeff 403 403   0.0487489   3.7230458
pair_coeff 404 404   0.0523118   3.1367814
pair_coeff 405 405   0.0606721   5.0616931
pair_coeff 406 406   0.0339701   3.2755024
pair_coeff 407 407   0.0513809   2.6722462
pair_coeff 408 408   0.0594093   5.6918222
pair_coeff 409 409   0.0662982   3.3070002
pair_coeff 410 410   0.0383680   2.4883819
pair_coeff 411 411   0.1100000   3.5635949
pair_coeff 412 412   0.0742967   1.7946866
pair_coeff 413 413   0.0536248   2.5664719
pair_coeff 414 414   0.0313599   2.9147174
pair_coeff 415 415   0.1100000   3.5635949
pair_coeff 416 416   0.0536656   2.7515450
pair_coeff 417 417   0.0745304   2.7513229
pair_coeff 418 418   0.0372261   3.5366459
pair_coeff 419 419   0.1100000   3.5635949
pair_coeff 420 420   0.0536656   3.4873055
pair_coeff 421 421   0.0959166   0.9986991
pair_coeff 422 422   0.0302030   2.3999329
pair_coeff 423 423   0.0574456   3.0274742
pair_coeff 424 424   0.1200000   3.0290556
pair_coeff 425 425   0.0536248   2.5942972
pair_coeff 426 426   0.0308571   2.3748482
pair_coeff 427 427   0.1100000   3.5635949
pair_coeff 428 428   0.0772399   3.8489287
pair_coeff 429 429   0.0959166   0.9958916
pair_coeff 430 430   0.0508648   2.7414311
pair_coeff 431 431   0.1100000   3.5635949
pair_coeff 432 432   0.1200000   3.0290556
pair_coeff 433 433   0.0750784   2.6576013
pair_coeff 434 434   0.0562214   4.0870305
pair_coeff 435 435   0.1100000   3.5635949
pair_coeff 436 436   0.1200000   3.0290556
pair_coeff 437 437   0.0678821   2.4667387
pair_coeff 438 438   0.0359505   3.4148593
pair_coeff 439 439   0.1100000   3.5635949
pair_coeff 440 440   0.1200000   3.0290556
pair_coeff 441 441   0.0750784   1.9598186
pair_coeff 442 442   0.0436658   2.6167112
pair_coeff 443 443   0.1100000   3.5635949
pair_coeff 444 444   0.1200000   3.0290556
pair_coeff 445 445   0.0959166   1.0017485
pair_coeff 446 446   0.0387574   3.1833398
pair_coeff 447 447   0.1100000   3.5635949
pair_coeff 448 448   0.0638749   2.6288591
pair_coeff 449 449   0.0750784   2.5989400
pair_coeff 450 450   0.0436658   2.5084900
pair_coeff 451 451   0.1003984   1.7312808
pair_coeff 452 452   0.1200000   3.8313053
pair_coeff 453 453   0.0547006   4.2782344
pair_coeff 454 454   0.0603565   3.6111737
pair_coeff 455 455   0.0515221   3.9642255
pair_coeff 456 456   0.0463398   5.2830708
pair_coeff 457 457   0.0403191   2.9812854
pair_coeff 458 458   0.0886166   2.8988550
pair_coeff 459 459   0.0350555   5.2355513
pair_coeff 460 460   0.0917423   4.4708892
pair_coeff 461 461   0.0549145   4.6619977
pair_coeff 462 462   0.0479287   4.6646638
pair_coeff 463 463   0.0679652   3.4548754
pair_coeff 464 464   0.0412065   4.7464394
pair_coeff 465 465   0.0431255   4.0831885
pair_coeff 466 466   0.0520300   4.8436009
pair_coeff 467 467   0.0553171   5.9004789
pair_coeff 468 468   0.0538147   4.0864273
pair_coeff 469 469   0.0513785   5.0749857
pair_coeff 470 470   0.0481221   5.6331282
pair_coeff 471 471   0.0592902   5.8659862
pair_coeff 472 472   0.0475102   3.7837291
pair_coeff 473 473   0.0432895   4.1988969
pair_coeff 474 474   0.0515221   3.9857038
pair_coeff 475 475   0.0431255   4.0429126
pair_coeff 476 476   0.0603565   3.5765296
pair_coeff 477 477   0.0573755   4.1241316
pair_coeff 478 478   0.1049761   2.4119598
pair_coeff 479 479   0.0451558   2.8392238
pair_coeff 480 480   0.1003984   1.7498952
pair_coeff 481 481   0.1200000   3.0290556
pair_coeff 482 482   0.0544528   3.3367227
pair_coeff 483 483   0.0657845   3.0231299
pair_coeff 484 484   0.0497126   3.3954316
pair_coeff 485 485   0.0426419   4.5863241
pair_coeff 486 486   0.0489638   4.3832846
pair_coeff 487 487   0.0603565   3.4476736
pair_coeff 488 488   0.0657845   3.0738847
pair_coeff 489 489   0.0448438   4.0090950
pair_coeff 490 490   0.0562091   4.9313638
pair_coeff 491 491   0.0515221   3.9550655
pair_coeff 492 492   0.0552253   4.4705205
pair_coeff 493 493   0.0487489   3.6511728
pair_coeff 494 494   0.0465282   3.8078449
pair_coeff 495 495   0.0431255   3.9858694
pair_coeff 496 496   0.0481248   5.5011910
pair_coeff 497 497   0.0589539   4.6239039
pair_coeff 498 498   0.0603565   3.5255197
pair_coeff 499 499   0.0603565   3.4365791
pair_coeff 500 500   0.0525787   4.3141856
pair_coeff 501 501   0.0459524   4.5685687
pair_coeff 502 502   0.0586374   5.1058676
pair_coeff 503 503   0.0569409   4.3259113
pair_coeff 504 504   0.0469439   4.9404399
pair_coeff 505 505   0.0603565   3.5086849
pair_coeff 506 506   0.0590057   3.8770246
pair_coeff 507 507   0.0422147   4.3831606
pair_coeff 508 508   0.0429404   3.9235322
pair_coeff 509 509   0.0515221   3.9586057
pair_coeff 510 510   0.0427125   4.6634625
pair_coeff 511 511   0.0417128   3.2374891
pair_coeff 512 512   0.0890069   3.4008940
pair_coeff 513 513   0.0436658   2.5662099
pair_coeff 514 514   0.1100000   3.5635949
pair_coeff 515 515   0.0536656   3.6753775
pair_coeff 516 516   0.0959166   1.0018483
pair_coeff 517 517   0.0439918   2.8056037
pair_coeff 518 518   0.1100000   3.5635949
pair_coeff 519 519   0.0536656   2.7149033
pair_coeff 520 520   0.0959166   1.0052860
pair_coeff 521 521   0.0511030   4.3272865
pair_coeff 522 522   0.1100000   3.5635949
pair_coeff 523 523   0.0501210   5.4418534
pair_coeff 524 524   0.0959166   0.9984989
pair_coeff 525 525   0.0353065   3.6065968
pair_coeff 526 526   0.1100000   3.5635949
pair_coeff 527 527   0.1200000   3.0290556
pair_coeff 528 528   0.0880885   3.2815680
pair_coeff 529 529   0.0352778   1.4381779
pair_coeff 530 530   0.1100000   3.5635949
pair_coeff 531 531   0.1200000   3.0290556
pair_coeff 532 532   0.0959166   1.0044899
pair_coeff 533 533   0.0475948   2.9568737
pair_coeff 534 534   0.0513809   2.6781710
pair_coeff 535 535   0.1200000   3.0290556
pair_coeff 536 536   0.0959166   0.9981984
pair_coeff 537 537   0.0372393   3.5536381
pair_coeff 538 538   0.1100000   3.5635949
pair_coeff 539 539   0.0600000   2.8633721
pair_coeff 540 540   0.0959166   1.0046890
pair_coeff 541 541   0.0408773   3.1185562
pair_coeff 542 542   0.1100000   3.5635949
pair_coeff 543 543   0.0844174   3.3531627
pair_coeff 544 544   0.0604412   2.5856871
pair_coeff 545 545   0.0432274   4.0962591
pair_coeff 546 546   0.1100000   3.5635949
pair_coeff 547 547   0.1200000   3.0290556
pair_coeff 548 548   0.0651083   3.9111692
pair_coeff 549 549   0.0408773   3.1156411
pair_coeff 550 550   0.0513809   2.6108428
pair_coeff 551 551   0.0654909   3.1938809
pair_coeff 552 552   0.0959166   1.0003000
pair_coeff 553 553   0.0559415   3.9455767
pair_coeff 554 554   0.1003984   1.7118930
pair_coeff 555 555   0.1200000   3.0290556
pair_coeff 556 556   0.0599114   4.1063592
pair_coeff 557 557   0.0431255   4.0300043
pair_coeff 558 558   0.0617819   4.9317406
pair_coeff 559 559   0.0656583   4.4379127
pair_coeff 560 560   0.0499639   5.2988032
pair_coeff 561 561   0.0463428   4.1099829
pair_coeff 562 562   0.0590057   3.8135278
pair_coeff 563 563   0.0640778   4.1148834
pair_coeff 564 564   0.0519734   3.8941054
pair_coeff 565 565   0.0484175   4.4562112
pair_coeff 566 566   0.0384367   4.8338266
pair_coeff 567 567   0.0727012   6.3224976
pair_coeff 568 568   0.0510238   3.1582303
pair_coeff 569 569   0.1100000   3.5635949
pair_coeff 570 570   0.0742967   5.1669914
pair_coeff 571 571   0.0959166   1.0028958
pair_coeff 572 572   0.0375797   3.3168937
pair_coeff 573 573   0.1100000   3.5635949
pair_coeff 574 574   0.1200000   3.0290556
pair_coeff 575 575   0.0959166   0.9966444
pair_coeff 576 576   0.0518904   4.7377639
pair_coeff 577 577   0.1100000   3.5635949
pair_coeff 578 578   0.1200000   3.0290556
pair_coeff 579 579   0.0604412   2.7841456
pair_coeff 580 580   0.0353071   3.2020965
pair_coeff 581 581   0.1100000   3.5635949
pair_coeff 582 582   0.0536656   2.5470964
pair_coeff 583 583   0.0959166   0.9976973
pair_coeff 584 584   0.0435928   3.2734037
pair_coeff 585 585   0.1100000   3.5635949
pair_coeff 586 586   0.0554455   3.7629451
pair_coeff 587 587   0.0750784   2.4617248
pair_coeff 588 588   0.0516434   4.8498383
pair_coeff 589 589   0.1100000   3.5635949
pair_coeff 590 590   0.1200000   3.0290556
pair_coeff 591 591   0.2000000   3.2963253
pair_coeff 592 592   0.0460000   0.4000135
pair_coeff 593 593   0.0320000   3.5635949
pair_coeff 594 594   0.0220000   2.3519726
pair_coeff 595 595   0.0560000   3.5814128
pair_coeff 596 596   0.0340000   2.3876086
pair_coeff 597 597   0.2000000   3.2963253
pair_coeff 598 598   0.0460000   0.4000135
pair_coeff 599 599   0.1100000   3.5635949
pair_coeff 600 600   0.1200000   3.0290556
pair_coeff 601 601   0.0700000   3.5500532
pair_coeff 602 602   0.0300000   2.4200373
pair_coeff 603 603   0.1521000   3.1537815
pair_coeff 604 604   0.0280000   2.3876086
pair_coeff 605 605   0.2000000   3.2963253
pair_coeff 606 606   0.0550000   3.8754094
pair_coeff 607 607   0.0200000   4.0535892
pair_coeff 608 608   0.0550000   3.8754094
pair_coeff 609 609   0.3800000   3.5190499
pair_coeff 610 610   0.0780000   3.6348668
pair_coeff 611 611   0.0240000   2.3876086
pair_coeff 612 612   0.0560000   3.5814128
pair_coeff 613 613   0.0700000   3.5635949
pair_coeff 614 614   0.1200000   3.0290556
pair_coeff 615 615   0.0450000   2.3876086
pair_coeff 616 616   0.0959166   1.0024470
pair_coeff 617 617   0.0439918   2.7252710
pair_coeff 618 618   0.0513809   3.6547640
pair_coeff 619 619   0.0410394   4.0151269
pair_coeff 620 620   0.0604412   3.1082971
pair_coeff 621 621   0.0329140   3.3818886
pair_coeff 622 622   0.1100000   3.5635949
pair_coeff 623 623   0.0535325   5.6837111
pair_coeff 624 624   0.0959166   0.9958916
pair_coeff 625 625   0.0394825   4.6469506
pair_coeff 626 626   0.0727919   4.2666745
pair_coeff 627 627   0.1200000   3.0290556
pair_coeff 628 628   0.0410305   3.9448524
pair_coeff 629 629   0.0513996   4.9923845
pair_coeff 630 630   0.0456093   5.5135729
pair_coeff 631 631   0.0485472   4.1334855
pair_coeff 632 632   0.0504652   5.3138969
pair_coeff 633 633   0.0475102   3.7312210
pair_coeff 634 634   0.0502623   5.3865155
pair_coeff 635 635   0.0733868   5.0817434
pair_coeff 636 636   0.0501140   4.1285641
pair_coeff 637 637   0.0426419   4.6814764
pair_coeff 638 638   0.0524819   4.9218375
pair_coeff 639 639   0.0426419   4.5399491
pair_coeff 640 640   0.0603565   3.4592714
pair_coeff 641 641   0.0503989   4.0259396
pair_coeff 642 642   0.0501140   4.1924949
pair_coeff 643 643   0.0528604   5.2215035
pair_coeff 644 644   0.0589539   4.1999454
pair_coeff 645 645   0.0434175   4.6187948
pair_coeff 646 646   0.0503151   5.2896261
pair_coeff 647 647   0.0596055   3.2142058
pair_coeff 648 648   0.0666217   3.8447164
pair_coeff 649 649   0.0339701   3.2254718
pair_coeff 650 650   0.0513809   2.5693774
pair_coeff 651 651   0.1200000   3.0290556
pair_coeff 652 652   0.0627010   3.8039749
pair_coeff 653 653   0.0353071   3.2476559
pair_coeff 654 654   0.1100000   3.5635949
pair_coeff 655 655   0.0536656   2.6218123
pair_coeff 656 656   0.0604412   2.6983946
pair_coeff 657 657   0.0347367   3.8827027
pair_coeff 658 658   0.0513809   2.6162760
pair_coeff 659 659   0.1200000   3.0290556
pair_coeff 660 660   0.0959166   0.9994498
pair_coeff 661 661   0.0510238   3.1552298
pair_coeff 662 662   0.1100000   3.5635949
pair_coeff 663 663   0.1200000   3.0290556
pair_coeff 664 664   0.0959166   0.9976973
pair_coeff 665 665   0.0339701   3.1788841
pair_coeff 666 666   0.0513809   2.6203244
pair_coeff 667 667   0.1200000   3.0290556
pair_coeff 668 668   0.0959166   1.0002500
pair_coeff 669 669   0.0439918   2.6923292
pair_coeff 670 670   0.1100000   3.5635949
pair_coeff 671 671   0.1200000   3.0290556
pair_coeff 672 672   0.0959166   0.9972963
pair_coeff 673 673   0.0449306   3.9464460
pair_coeff 674 674   0.1100000   3.5635949
pair_coeff 675 675   0.0703787   3.6061592
pair_coeff 676 676   0.0678821   2.4371751
pair_coeff 677 677   0.0494521   3.7629143
pair_coeff 678 678   0.1100000   3.5635949
pair_coeff 679 679   0.1200000   3.0290556
pair_coeff 680 680   0.1033530   2.9363923
pair_coeff 681 681   0.0451558   2.9824302